Mack/Bortfeldt(2008)
Bin-Packing-Problem
BP-RG/SBSBPP/SSSCSP
Testcase-ID	5
Problem-ID	35
no_item_types	10
no_items	1888
CONTAINER_DATA (l,w,h)	459	105	93
ITEMS_DATA:
Type	x	y	z	no_items
1	100	80	72	192
2	83	80	57	212
3	109	58	54	177
4	87	77	43	176
5	88	54	39	198
6	94	54	36	155
7	94	55	30	197
8	83	40	36	188
9	91	54	22	194
10	34	32	31	199
